
Gurobi 11.0.1 (win64) logging started Fri Apr 26 20:53:16 2024

Set parameter LogFile to value "gurobi.log"
Set parameter MIPGap to value 0.01
Set parameter TimeLimit to value 1200
Set parameter MIPFocus to value 1
Set parameter IntFeasTol to value 1e-06

Gurobi 11.0.1 (win64) logging started Fri Apr 26 20:53:33 2024

Set parameter LogFile to value "gurobi.log"
Set parameter MIPGap to value 0.01
Set parameter TimeLimit to value 1200
Set parameter MIPFocus to value 1
Set parameter IntFeasTol to value 1e-06

Gurobi 11.0.1 (win64) logging started Fri Apr 26 20:55:01 2024

Set parameter LogFile to value "gurobi.log"
Set parameter MIPGap to value 0.01
Set parameter TimeLimit to value 1200
Set parameter MIPFocus to value 1
Set parameter IntFeasTol to value 1e-06

Gurobi 11.0.1 (win64) logging started Fri Apr 26 21:31:08 2024

Set parameter LogFile to value "gurobi.log"
Set parameter MIPGap to value 0.01
Set parameter TimeLimit to value 1200
Set parameter MIPFocus to value 1
Set parameter IntFeasTol to value 1e-06

Gurobi 11.0.1 (win64) logging started Fri Apr 26 21:33:33 2024

Set parameter LogFile to value "gurobi.log"
Set parameter MIPGap to value 0.01
Set parameter TimeLimit to value 1200
Set parameter MIPFocus to value 1
Set parameter IntFeasTol to value 1e-06

Gurobi 11.0.1 (win64) logging started Fri Apr 26 21:37:44 2024

Set parameter LogFile to value "gurobi.log"
Set parameter MIPGap to value 0.01
Set parameter TimeLimit to value 1200
Set parameter MIPFocus to value 1
Set parameter IntFeasTol to value 1e-06

Gurobi 11.0.1 (win64) logging started Fri Apr 26 21:44:02 2024

Set parameter LogFile to value "gurobi.log"
Set parameter MIPGap to value 0.01
Set parameter TimeLimit to value 1200
Set parameter MIPFocus to value 1
Set parameter IntFeasTol to value 1e-06

Gurobi 11.0.1 (win64) logging started Fri Apr 26 22:16:44 2024

Set parameter LogFile to value "gurobi.log"
Set parameter MIPGap to value 0.01
Set parameter TimeLimit to value 1200
Set parameter MIPFocus to value 1
Set parameter IntFeasTol to value 1e-06

Gurobi 11.0.1 (win64) logging started Fri Apr 26 22:16:53 2024

Set parameter LogFile to value "gurobi.log"
Set parameter MIPGap to value 0.01
Set parameter TimeLimit to value 1200
Set parameter MIPFocus to value 1
Set parameter IntFeasTol to value 1e-06

Gurobi 11.0.1 (win64) logging started Fri Apr 26 22:20:54 2024

Set parameter LogFile to value "gurobi.log"
Set parameter MIPGap to value 0.01
Set parameter TimeLimit to value 1200
Set parameter MIPFocus to value 1
Set parameter IntFeasTol to value 1e-06

Gurobi 11.0.1 (win64) logging started Fri Apr 26 22:21:28 2024

Set parameter LogFile to value "gurobi.log"
Set parameter MIPGap to value 0.01
Set parameter TimeLimit to value 1200
Set parameter MIPFocus to value 1
Set parameter IntFeasTol to value 1e-06

Gurobi 11.0.1 (win64) logging started Fri Apr 26 22:49:52 2024

Set parameter LogFile to value "gurobi.log"
Set parameter MIPGap to value 0.01
Set parameter TimeLimit to value 1200
Set parameter MIPFocus to value 1
Set parameter IntFeasTol to value 1e-06

Gurobi 11.0.1 (win64) logging started Fri Apr 26 22:51:15 2024

Set parameter LogFile to value "gurobi.log"
Set parameter MIPGap to value 0.01
Set parameter TimeLimit to value 1200
Set parameter MIPFocus to value 1
Set parameter IntFeasTol to value 1e-06

Gurobi 11.0.1 (win64) logging started Fri Apr 26 22:52:38 2024

Set parameter LogFile to value "gurobi.log"
Set parameter MIPGap to value 0.01
Set parameter TimeLimit to value 1200
Set parameter MIPFocus to value 1
Set parameter IntFeasTol to value 1e-06
